NAME : pr30.tsp.439516.tour
COMMENT : Length = 439516
COMMENT : Found by LKH [Keld Helsgaun] Thu Jun 15 01:16:15 2017
TYPE : TOUR
DIMENSION : 30
TOUR_SECTION
1
9
6
15
13
29
22
10
24
11
4
28
16
2
8
19
17
5
7
26
3
30
14
25
27
23
20
12
21
18
-1
EOF
